NAME : 513b4fda-ddf8-48dd-9c70-044375570201.tsptw.4528.tour
COMMENT : Length = 4528
COMMENT : Found by LKH [Keld Helsgaun] Wed Jan 29 18:18:05 2020
TYPE : TOUR
DIMENSION : 8
TOUR_SECTION
1
3
8
4
2
6
7
5
-1
EOF
